27 27
21
3 3 10 21
3 4 10 17
5 3 7 14
6 3 21 24
7 3 14 24
8 3 0 0
3 9 24 11
3 10 7 17
11 3 13 17
12 3 12 14
19 3 8 0
3 20 0 7
21 3 3 11
4 3 10 24
4 4 23 7
4 6 3 21
4 7 3 14
8 4 19 3
14 4 13 20
19 4 0 3
20 4 3 7
